% The Rogo problem Intro 1
% 
% http://www.rogopuzzle.co.nz/paper-rogos/intro-rogo-1/
%
rows = 5;
cols = 9;
max_steps = 12;
best = 8;
problem = array2d(1..rows, 1..cols, 
[
 %1 2 3 4 5 6 7,8,9,
  2,W,W,W,W,W,W,W,W, % 1
  W,3,W,W,1,W,W,2,W, % 2
  W,W,W,W,W,W,B,W,3, % 3
  W,W,2,B,W,W,W,W,W, % 4
  W,W,W,W,2,W,W,1,W, % 5
]);
